50
1 0 39
2 0 18
2 1 18
3 0 19
3 1 2
3 2 5
4 0 8
4 1 41
4 2 14
4 3 3
5 0 28
5 1 45
5 2 28
5 3 44
5 4 5
6 0 48
6 1 46
6 2 16
6 3 45
6 4 12
6 5 42
7 0 24
7 1 26
7 2 35
7 3 34
7 4 37
7 5 3
7 6 3
8 0 40
8 1 21
8 2 14
8 3 10
8 4 38
8 5 19
8 6 23
8 7 44
9 0 28
9 1 31
9 2 37
9 3 1
9 4 48
9 5 19
9 6 25
9 7 6
9 8 18
10 0 19
10 1 6
10 2 35
10 3 30
10 4 6
10 5 35
10 6 30
10 7 50
10 8 21
10 9 11
11 0 38
11 1 9
11 2 36
11 3 29
11 4 38
11 5 29
11 6 25
11 7 49
11 8 48
11 9 39
11 10 16
12 0 24
12 1 24
12 2 46
12 3 47
12 4 16
12 5 4
12 6 7
12 7 33
12 8 2
12 9 34
12 10 10
12 11 42
13 0 40
13 1 4
13 2 22
13 3 15
13 4 40
13 5 16
13 6 14
13 7 4
13 8 36
13 9 29
13 10 46
13 11 17
13 12 16
14 0 18
14 1 13
14 2 5
14 3 48
14 4 39
14 5 43
14 6 30
14 7 17
14 8 50
14 9 34
14 10 24
14 11 5
14 12 44
14 13 38
15 0 19
15 1 32
15 2 46
15 3 5
15 4 11
15 5 29
15 6 31
15 7 36
15 8 39
15 9 43
15 10 45
15 11 7
15 12 42
15 13 48
15 14 27
16 0 50
16 1 17
16 2 2
16 3 13
16 4 44
16 5 9
16 6 5
16 7 19
16 8 43
16 9 28
16 10 5
16 11 40
16 12 50
16 13 8
16 14 39
16 15 3
17 0 24
17 1 24
17 2 48
17 3 26
17 4 1
17 5 1
17 6 48
17 7 44
17 8 10
17 9 13
17 10 41
17 11 41
17 12 15
17 13 31
17 14 24
17 15 14
17 16 48
18 0 39
18 1 43
18 2 31
18 3 10
18 4 10
18 5 32
18 6 44
18 7 44
18 8 16
18 9 9
18 10 37
18 11 3
18 12 16
18 13 48
18 14 48
18 15 2
18 16 8
18 17 11
19 0 16
19 1 16
19 2 6
19 3 47
19 4 16
19 5 32
19 6 13
19 7 15
19 8 26
19 9 12
19 10 34
19 11 2
19 12 30
19 13 4
19 14 50
19 15 36
19 16 11
19 17 1
19 18 47
20 0 25
20 1 41
20 2 29
20 3 38
20 4 50
20 5 2
20 6 25
20 7 32
20 8 28
20 9 28
20 10 32
20 11 42
20 12 32
20 13 14
20 14 7
20 15 34
20 16 24
20 17 15
20 18 3
20 19 50
21 0 50
21 1 10
21 2 30
21 3 28
21 4 41
21 5 19
21 6 44
21 7 21
21 8 34
21 9 19
21 10 33
21 11 22
21 12 34
21 13 2
21 14 38
21 15 17
21 16 8
21 17 8
21 18 39
21 19 1
21 20 9
22 0 17
22 1 20
22 2 48
22 3 40
22 4 16
22 5 40
22 6 4
22 7 38
22 8 43
22 9 14
22 10 10
22 11 6
22 12 43
22 13 27
22 14 2
22 15 47
22 16 19
22 17 20
22 18 29
22 19 24
22 20 44
22 21 17
23 0 47
23 1 37
23 2 28
23 3 31
23 4 5
23 5 1
23 6 40
23 7 30
23 8 26
23 9 27
23 10 8
23 11 37
23 12 4
23 13 5
23 14 16
23 15 13
23 16 44
23 17 38
23 18 34
23 19 12
23 20 6
23 21 36
23 22 3
24 0 8
24 1 47
24 2 43
24 3 18
24 4 37
24 5 48
24 6 37
24 7 45
24 8 28
24 9 35
24 10 7
24 11 23
24 12 9
24 13 23
24 14 1
24 15 33
24 16 17
24 17 13
24 18 46
24 19 14
24 20 38
24 21 30
24 22 5
24 23 46
25 0 22
25 1 29
25 2 28
25 3 2
25 4 23
25 5 19
25 6 11
25 7 48
25 8 48
25 9 6
25 10 37
25 11 37
25 12 20
25 13 44
25 14 31
25 15 41
25 16 28
25 17 50
25 18 33
25 19 45
25 20 39
25 21 12
25 22 3
25 23 27
25 24 23
26 0 14
26 1 25
26 2 5
26 3 35
26 4 38
26 5 50
26 6 26
26 7 35
26 8 34
26 9 38
26 10 32
26 11 21
26 12 46
26 13 35
26 14 7
26 15 8
26 16 16
26 17 45
26 18 34
26 19 35
26 20 23
26 21 48
26 22 11
26 23 33
26 24 50
26 25 42
27 0 44
27 1 20
27 2 23
27 3 2
27 4 3
27 5 41
27 6 27
27 7 40
27 8 13
27 9 13
27 10 26
27 11 1
27 12 7
27 13 12
27 14 25
27 15 45
27 16 27
27 17 47
27 18 43
27 19 18
27 20 27
27 21 10
27 22 7
27 23 8
27 24 48
27 25 7
27 26 24
28 0 45
28 1 40
28 2 36
28 3 33
28 4 17
28 5 13
28 6 5
28 7 16
28 8 5
28 9 33
28 10 10
28 11 35
28 12 4
28 13 18
28 14 8
28 15 25
28 16 39
28 17 16
28 18 20
28 19 4
28 20 43
28 21 6
28 22 34
28 23 23
28 24 47
28 25 16
28 26 1
28 27 42
29 0 16
29 1 40
29 2 45
29 3 18
29 4 8
29 5 9
29 6 26
29 7 31
29 8 19
29 9 31
29 10 20
29 11 4
29 12 6
29 13 26
29 14 33
29 15 7
29 16 39
29 17 49
29 18 19
29 19 39
29 20 35
29 21 2
29 22 13
29 23 6
29 24 16
29 25 44
29 26 19
29 27 48
29 28 4
30 0 44
30 1 32
30 2 18
30 3 26
30 4 42
30 5 8
30 6 46
30 7 25
30 8 46
30 9 10
30 10 6
30 11 6
30 12 7
30 13 37
30 14 49
30 15 7
30 16 22
30 17 47
30 18 41
30 19 42
30 20 29
30 21 32
30 22 50
30 23 24
30 24 32
30 25 44
30 26 46
30 27 2
30 28 22
30 29 24
31 0 27
31 1 38
31 2 32
31 3 18
31 4 7
31 5 34
31 6 3
31 7 28
31 8 22
31 9 6
31 10 18
31 11 31
31 12 47
31 13 5
31 14 30
31 15 40
31 16 6
31 17 36
31 18 35
31 19 43
31 20 9
31 21 11
31 22 18
31 23 41
31 24 3
31 25 21
31 26 34
31 27 37
31 28 11
31 29 20
31 30 20
32 0 18
32 1 10
32 2 36
32 3 1
32 4 19
32 5 6
32 6 41
32 7 31
32 8 28
32 9 26
32 10 3
32 11 28
32 12 39
32 13 13
32 14 30
32 15 7
32 16 50
32 17 19
32 18 16
32 19 2
32 20 38
32 21 2
32 22 9
32 23 9
32 24 19
32 25 8
32 26 45
32 27 45
32 28 11
32 29 4
32 30 36
32 31 12
33 0 38
33 1 34
33 2 42
33 3 14
33 4 2
33 5 25
33 6 31
33 7 42
33 8 45
33 9 46
33 10 30
33 11 7
33 12 13
33 13 28
33 14 5
33 15 16
33 16 44
33 17 15
33 18 41
33 19 28
33 20 43
33 21 27
33 22 41
33 23 25
33 24 33
33 25 31
33 26 34
33 27 6
33 28 47
33 29 46
33 30 35
33 31 14
33 32 15
34 0 18
34 1 26
34 2 27
34 3 15
34 4 40
34 5 34
34 6 50
34 7 49
34 8 26
34 9 33
34 10 15
34 11 27
34 12 30
34 13 31
34 14 45
34 15 21
34 16 5
34 17 39
34 18 28
34 19 36
34 20 50
34 21 20
34 22 11
34 23 21
34 24 45
34 25 24
34 26 5
34 27 8
34 28 14
34 29 41
34 30 24
34 31 40
34 32 8
34 33 6
35 0 28
35 1 6
35 2 33
35 3 48
35 4 19
35 5 11
35 6 13
35 7 13
35 8 31
35 9 28
35 10 12
35 11 10
35 12 42
35 13 28
35 14 19
35 15 50
35 16 25
35 17 29
35 18 46
35 19 36
35 20 34
35 21 8
35 22 20
35 23 10
35 24 24
35 25 13
35 26 42
35 27 39
35 28 25
35 29 33
35 30 23
35 31 21
35 32 37
35 33 47
35 34 41
36 0 14
36 1 5
36 2 29
36 3 50
36 4 41
36 5 2
36 6 47
36 7 19
36 8 14
36 9 8
36 10 29
36 11 12
36 12 39
36 13 46
36 14 42
36 15 36
36 16 33
36 17 25
36 18 30
36 19 18
36 20 21
36 21 36
36 22 1
36 23 10
36 24 41
36 25 23
36 26 16
36 27 50
36 28 46
36 29 48
36 30 47
36 31 48
36 32 31
36 33 50
36 34 41
36 35 20
37 0 35
37 1 36
37 2 26
37 3 46
37 4 2
37 5 43
37 6 24
37 7 3
37 8 22
37 9 15
37 10 19
37 11 41
37 12 20
37 13 24
37 14 49
37 15 43
37 16 40
37 17 45
37 18 8
37 19 48
37 20 11
37 21 46
37 22 34
37 23 38
37 24 14
37 25 26
37 26 29
37 27 34
37 28 27
37 29 28
37 30 2
37 31 45
37 32 24
37 33 48
37 34 37
37 35 26
37 36 46
38 0 39
38 1 17
38 2 22
38 3 31
38 4 1
38 5 5
38 6 23
38 7 50
38 8 27
38 9 27
38 10 35
38 11 27
38 12 38
38 13 34
38 14 23
38 15 33
38 16 40
38 17 23
38 18 46
38 19 40
38 20 4
38 21 49
38 22 15
38 23 32
38 24 42
38 25 1
38 26 28
38 27 24
38 28 5
38 29 50
38 30 35
38 31 48
38 32 30
38 33 43
38 34 4
38 35 41
38 36 9
38 37 8
39 0 28
39 1 36
39 2 30
39 3 47
39 4 9
39 5 31
39 6 26
39 7 13
39 8 38
39 9 31
39 10 11
39 11 31
39 12 37
39 13 37
39 14 23
39 15 13
39 16 45
39 17 46
39 18 21
39 19 32
39 20 2
39 21 4
39 22 24
39 23 5
39 24 29
39 25 9
39 26 32
39 27 33
39 28 38
39 29 33
39 30 29
39 31 25
39 32 39
39 33 20
39 34 26
39 35 32
39 36 11
39 37 19
39 38 39
40 0 35
40 1 29
40 2 40
40 3 24
40 4 38
40 5 22
40 6 36
40 7 34
40 8 50
40 9 6
40 10 10
40 11 7
40 12 12
40 13 20
40 14 6
40 15 11
40 16 34
40 17 45
40 18 4
40 19 44
40 20 34
40 21 7
40 22 21
40 23 33
40 24 11
40 25 12
40 26 46
40 27 49
40 28 13
40 29 4
40 30 44
40 31 24
40 32 12
40 33 5
40 34 26
40 35 45
40 36 28
40 37 7
40 38 11
40 39 38
41 0 34
41 1 4
41 2 28
41 3 10
41 4 6
41 5 5
41 6 21
41 7 15
41 8 26
41 9 42
41 10 47
41 11 38
41 12 32
41 13 38
41 14 18
41 15 14
41 16 49
41 17 29
41 18 31
41 19 20
41 20 4
41 21 19
41 22 10
41 23 40
41 24 7
41 25 50
41 26 9
41 27 39
41 28 8
41 29 38
41 30 45
41 31 34
41 32 50
41 33 18
41 34 32
41 35 49
41 36 44
41 37 44
41 38 2
41 39 14
41 40 4
42 0 49
42 1 14
42 2 7
42 3 24
42 4 46
42 5 6
42 6 38
42 7 20
42 8 38
42 9 33
42 10 40
42 11 19
42 12 46
42 13 2
42 14 1
42 15 44
42 16 13
42 17 28
42 18 14
42 19 28
42 20 47
42 21 1
42 22 13
42 23 17
42 24 43
42 25 10
42 26 46
42 27 41
42 28 31
42 29 41
42 30 20
42 31 41
42 32 10
42 33 14
42 34 11
42 35 31
42 36 27
42 37 10
42 38 33
42 39 24
42 40 2
42 41 20
43 0 39
43 1 43
43 2 34
43 3 47
43 4 21
43 5 36
43 6 6
43 7 15
43 8 17
43 9 2
43 10 44
43 11 44
43 12 6
43 13 8
43 14 31
43 15 19
43 16 23
43 17 19
43 18 17
43 19 32
43 20 14
43 21 31
43 22 30
43 23 8
43 24 19
43 25 26
43 26 6
43 27 15
43 28 41
43 29 48
43 30 41
43 31 45
43 32 19
43 33 3
43 34 33
43 35 39
43 36 14
43 37 2
43 38 49
43 39 15
43 40 28
43 41 28
43 42 17
44 0 11
44 1 25
44 2 20
44 3 45
44 4 11
44 5 49
44 6 28
44 7 1
44 8 49
44 9 1
44 10 10
44 11 15
44 12 29
44 13 8
44 14 1
44 15 31
44 16 38
44 17 8
44 18 43
44 19 31
44 20 14
44 21 50
44 22 37
44 23 41
44 24 9
44 25 36
44 26 38
44 27 13
44 28 5
44 29 6
44 30 8
44 31 24
44 32 28
44 33 10
44 34 44
44 35 48
44 36 1
44 37 32
44 38 13
44 39 26
44 40 12
44 41 48
44 42 27
44 43 28
45 0 5
45 1 7
45 2 37
45 3 20
45 4 48
45 5 31
45 6 34
45 7 47
45 8 4
45 9 15
45 10 16
45 11 46
45 12 46
45 13 28
45 14 36
45 15 20
45 16 17
45 17 36
45 18 20
45 19 40
45 20 36
45 21 29
45 22 38
45 23 49
45 24 34
45 25 16
45 26 37
45 27 27
45 28 6
45 29 34
45 30 10
45 31 21
45 32 26
45 33 41
45 34 24
45 35 3
45 36 36
45 37 6
45 38 50
45 39 8
45 40 36
45 41 5
45 42 13
45 43 26
45 44 14
46 0 15
46 1 7
46 2 33
46 3 4
46 4 22
46 5 36
46 6 1
46 7 6
46 8 14
46 9 42
46 10 1
46 11 11
46 12 25
46 13 1
46 14 24
46 15 5
46 16 42
46 17 44
46 18 43
46 19 14
46 20 30
46 21 33
46 22 22
46 23 33
46 24 17
46 25 39
46 26 22
46 27 46
46 28 16
46 29 23
46 30 43
46 31 25
46 32 3
46 33 50
46 34 5
46 35 15
46 36 31
46 37 44
46 38 50
46 39 12
46 40 15
46 41 3
46 42 43
46 43 8
46 44 12
46 45 14
47 0 17
47 1 40
47 2 8
47 3 35
47 4 26
47 5 47
47 6 28
47 7 37
47 8 20
47 9 37
47 10 38
47 11 38
47 12 35
47 13 3
47 14 43
47 15 37
47 16 35
47 17 10
47 18 16
47 19 20
47 20 23
47 21 11
47 22 44
47 23 16
47 24 34
47 25 3
47 26 41
47 27 44
47 28 50
47 29 43
47 30 1
47 31 12
47 32 34
47 33 21
47 34 12
47 35 31
47 36 35
47 37 26
47 38 25
47 39 28
47 40 43
47 41 25
47 42 24
47 43 47
47 44 21
47 45 30
47 46 23
48 0 6
48 1 16
48 2 37
48 3 3
48 4 3
48 5 4
48 6 39
48 7 46
48 8 32
48 9 44
48 10 17
48 11 6
48 12 33
48 13 21
48 14 49
48 15 31
48 16 31
48 17 21
48 18 6
48 19 26
48 20 46
48 21 12
48 22 49
48 23 38
48 24 38
48 25 32
48 26 30
48 27 10
48 28 47
48 29 32
48 30 25
48 31 35
48 32 16
48 33 17
48 34 34
48 35 22
48 36 31
48 37 38
48 38 50
48 39 23
48 40 48
48 41 19
48 42 10
48 43 24
48 44 5
48 45 32
48 46 44
48 47 5
49 0 26
49 1 45
49 2 20
49 3 10
49 4 26
49 5 21
49 6 26
49 7 9
49 8 14
49 9 17
49 10 9
49 11 3
49 12 19
49 13 40
49 14 31
49 15 43
49 16 8
49 17 35
49 18 4
49 19 42
49 20 8
49 21 38
49 22 20
49 23 6
49 24 15
49 25 31
49 26 18
49 27 5
49 28 32
49 29 26
49 30 1
49 31 34
49 32 39
49 33 31
49 34 28
49 35 5
49 36 23
49 37 45
49 38 3
49 39 47
49 40 32
49 41 15
49 42 9
49 43 25
49 44 17
49 45 34
49 46 7
49 47 41
49 48 45
